161
0 22 148 72 78 117 130 92 102 85 
136 145 51 16 129 118 6 15 122 101 
125 41 55 87 152 20 106 133 120 60 
95 43 3 146 91 32 115 131 7 63 
127 113 61 48 28 82 93 30 8 81 
31 13 11 42 29 54 59 49 25 58 
40 135 159 68 104 105 153 52 71 94 
83 121 35 98 46 160 2 70 126 79 
18 119 147 67 154 132 27 73 50 158 
109 137 88 149 56 26 80 74 33 138 
86 157 124 47 62 111 45 38 66 96 
114 64 139 150 103 90 112 34 75 1 
69 143 97 156 36 9 5 39 76 123 
19 89 10 128 17 57 155 84 134 44 
4 110 65 108 144 21 14 141 37 24 
116 12 99 140 107 142 151 77 100 23 
53 
